data/solutions/planning/wellformed/moderate/weighting/wellformed_moderate_instance42_cplex.sol
Elapsed time: 0.33
Nodes explored: 2769
Nodes left: 161
Relative gap: 0.009
Upper bound: 152038.0
Lower bound: 152024
C[0]=10137.0
C[1]=10135.0
C[2]=10135.0
C[3]=10132.0
y[0]=2
y[1]=3
y[2]=1
y[3]=2
y[4]=0
y[5]=3
y[6]=0
y[7]=1
y[8]=3
y[9]=3
y[10]=3
y[11]=2
y[12]=1
y[13]=0
y[14]=2
y[15]=0
y[16]=1
y[17]=2
y[18]=0
y[19]=2
y[20]=0
y[21]=0
y[22]=0
y[23]=3
y[24]=2
y[25]=3
y[26]=0
y[27]=1
y[28]=2
y[29]=3
y[30]=1
y[31]=3
y[32]=2
y[33]=1
y[34]=3
y[35]=1
y[36]=2
y[37]=1
y[38]=1
y[39]=3
